
Gurobi 7.5.1 (win64, Python) logging started 11/18/17 16:02:27

Academic license - for non-commercial use only

Gurobi 7.5.1 (win64, Python) logging started 11/18/17 23:40:36

Academic license - for non-commercial use only
